; benchmark generated from python API
(set-info :status unknown)
(declare-fun x_months () (_ BitVec 32))
(declare-fun x_beta () (_ BitVec 32))
(assert
 (bvsle (_ bv4294966096 32) x_months))
(assert
 (bvsge (_ bv1199 32) x_months))
(assert
 (bvsle (_ bv0 32) x_beta))
(assert
 (let ((?x45812 (bvadd x_months (_ bv24003 32))))
 (let ((?x27855 (bvsub ?x45812 (bvmul (bvsdiv (bvsub ?x45812 (_ bv1 32)) (_ bv12 32)) (_ bv12 32)))))
 (let ((?x20072 (ite (or (= ?x27855 (_ bv4 32)) (= ?x27855 (_ bv6 32)) (= ?x27855 (_ bv9 32)) (= ?x27855 (_ bv11 32))) (_ bv30 32) (_ bv31 32))))
 (let (($x50170 (and (= (bvsmod (bvsdiv (bvsub ?x45812 (_ bv1 32)) (_ bv12 32)) (_ bv4 32)) (_ bv0 32)) (and (distinct (bvsmod (bvsdiv (bvsub ?x45812 (_ bv1 32)) (_ bv12 32)) (_ bv100 32)) (_ bv0 32)) true))))
 (let ((?x72253 (ite (or $x50170 (= (bvsmod (bvsdiv (bvsub ?x45812 (_ bv1 32)) (_ bv12 32)) (_ bv400 32)) (_ bv0 32))) (_ bv29 32) (_ bv28 32))))
 (bvslt x_beta (ite (= ?x27855 (_ bv2 32)) ?x72253 ?x20072))))))))
(assert
 (let (($x13211 (bvsle (_ bv27 32) x_beta)))
 (or (bvsgt x_months (bvsub (bvadd (bvmul (_ bv2020 32) (_ bv12 32)) (_ bv2 32)) (_ bv24003 32))) (and (= x_months (bvsub (bvadd (bvmul (_ bv2020 32) (_ bv12 32)) (_ bv2 32)) (_ bv24003 32))) $x13211))))
(assert
 (let (($x28604 (and (= x_months (bvsub (bvadd (bvmul (_ bv2020 32) (_ bv12 32)) (_ bv3 32)) (_ bv24003 32))) (bvsge (_ bv0 32) x_beta))))
 (or (bvslt x_months (bvsub (bvadd (bvmul (_ bv2020 32) (_ bv12 32)) (_ bv3 32)) (_ bv24003 32))) $x28604)))
(assert
 (let ((?x77450 (bvadd x_beta (_ bv1 32))))
(let ((?x84525 (bvsdiv (bvsub (bvadd (bvadd x_months (_ bv0 32)) (_ bv24003 32)) (_ bv1 32)) (_ bv12 32))))
(let ((?x44339 (bvadd (bvadd x_months (_ bv0 32)) (_ bv24003 32))))
(let ((?x83620 (bvsub ?x44339 (bvmul ?x84525 (_ bv12 32)))))
(let ((?x5487 (ite (or (= ?x83620 (_ bv4 32)) (= ?x83620 (_ bv6 32)) (= ?x83620 (_ bv9 32)) (= ?x83620 (_ bv11 32))) (_ bv30 32) (_ bv31 32))))
(let (($x56948 (or (and (= (bvsmod ?x84525 (_ bv4 32)) (_ bv0 32)) (and (distinct (bvsmod ?x84525 (_ bv100 32)) (_ bv0 32)) true)) (= (bvsmod ?x84525 (_ bv400 32)) (_ bv0 32)))))
(let ((?x13488 (ite (= ?x83620 (_ bv2 32)) (ite $x56948 (_ bv29 32) (_ bv28 32)) ?x5487)))
(let ((?x77528 (ite (bvsgt (_ bv1 32) ?x77450) (_ bv1 32) (ite (bvsgt ?x77450 ?x13488) ?x13488 ?x77450))))
(let ((?x29174 (ite (bvsgt (_ bv1 32) ?x77528) (_ bv1 32) (ite (bvsgt ?x77528 ?x13488) ?x13488 ?x77528))))
(let ((?x985 (ite (= (_ bv2 32) ?x83620) (ite $x56948 (_ bv31 32) (_ bv31 32)) (ite (= (_ bv1 32) ?x83620) (ite $x56948 (_ bv0 32) (_ bv0 32)) (_ bv0 32)))))
(let ((?x68419 (ite (= (_ bv4 32) ?x83620) (ite $x56948 (_ bv91 32) (_ bv90 32)) (ite (= (_ bv3 32) ?x83620) (ite $x56948 (_ bv60 32) (_ bv59 32)) ?x985))))
(let ((?x17380 (ite (= (_ bv6 32) ?x83620) (ite $x56948 (_ bv152 32) (_ bv151 32)) (ite (= (_ bv5 32) ?x83620) (ite $x56948 (_ bv121 32) (_ bv120 32)) ?x68419))))
(let ((?x20145 (ite (= (_ bv8 32) ?x83620) (ite $x56948 (_ bv213 32) (_ bv212 32)) (ite (= (_ bv7 32) ?x83620) (ite $x56948 (_ bv182 32) (_ bv181 32)) ?x17380))))
(let ((?x66987 (ite (= (_ bv10 32) ?x83620) (ite $x56948 (_ bv274 32) (_ bv273 32)) (ite (= (_ bv9 32) ?x83620) (ite $x56948 (_ bv244 32) (_ bv243 32)) ?x20145))))
(let ((?x59934 (ite (= (_ bv12 32) ?x83620) (ite $x56948 (_ bv335 32) (_ bv334 32)) (ite (= (_ bv11 32) ?x83620) (ite $x56948 (_ bv305 32) (_ bv304 32)) ?x66987))))
(let ((?x50174 (bvadd (bvmul (_ bv365 32) (bvsub ?x84525 (_ bv1 32))) (bvsdiv (bvsub ?x84525 (_ bv1 32)) (_ bv4 32)))))
(let ((?x83630 (bvadd (bvsub ?x50174 (bvsdiv (bvsub ?x84525 (_ bv1 32)) (_ bv100 32))) (bvsdiv (bvsub ?x84525 (_ bv1 32)) (_ bv400 32)))))
(let ((?x8858 (bvadd (bvadd (bvsub (bvadd (bvadd ?x83630 ?x59934) (bvsub ?x29174 (_ bv1 32))) (_ bv730179 32)) (_ bv1 32)) (_ bv730179 32))))
(let ((?x28050 (bvsmod ?x8858 (_ bv146097 32))))
(let ((?x62310 (bvsdiv ?x28050 (_ bv36524 32))))
(let ((?x67562 (ite (bvsle (_ bv4 32) ?x62310) (_ bv3 32) ?x62310)))
(let ((?x13880 (bvsub ?x28050 (bvmul ?x67562 (_ bv36524 32)))))
(let ((?x31699 (bvsmod ?x13880 (_ bv1461 32))))
(let ((?x77004 (bvsdiv ?x31699 (_ bv365 32))))
(let ((?x84710 (ite (bvsle (_ bv4 32) ?x77004) (_ bv3 32) ?x77004)))
(let ((?x36673 (bvadd (bvadd (bvmul (bvsdiv ?x8858 (_ bv146097 32)) (_ bv400 32)) (bvmul ?x67562 (_ bv100 32))) (bvmul (bvsdiv ?x13880 (_ bv1461 32)) (_ bv4 32)))))
(let ((?x85742 (bvadd (bvadd ?x36673 ?x84710) (_ bv1 32))))
(let (($x84483 (or (and (= (bvsmod ?x85742 (_ bv4 32)) (_ bv0 32)) (and (distinct (bvsmod ?x85742 (_ bv100 32)) (_ bv0 32)) true)) (= (bvsmod ?x85742 (_ bv400 32)) (_ bv0 32)))))
(let ((?x44196 (bvsub ?x31699 (bvmul ?x84710 (_ bv365 32)))))
(let ((?x86025 (ite $x84483 (_ bv31 32) (_ bv31 32))))
(let (($x45122 (bvsge ?x44196 ?x86025)))
(let ((?x4024 (ite $x45122 (bvadd (bvsub ?x44196 ?x86025) (_ bv1 32)) (bvadd (bvsub ?x44196 (ite $x84483 (_ bv0 32) (_ bv0 32))) (_ bv1 32)))))
(let ((?x61430 (ite $x84483 (_ bv60 32) (_ bv59 32))))
(let (($x83430 (bvsge ?x44196 ?x61430)))
(let ((?x8421 (ite $x84483 (_ bv91 32) (_ bv90 32))))
(let (($x20679 (bvsge ?x44196 ?x8421)))
(let ((?x4390 (ite $x20679 (bvadd (bvsub ?x44196 ?x8421) (_ bv1 32)) (ite $x83430 (bvadd (bvsub ?x44196 ?x61430) (_ bv1 32)) ?x4024))))
(let ((?x68483 (ite $x84483 (_ bv121 32) (_ bv120 32))))
(let (($x63756 (bvsge ?x44196 ?x68483)))
(let ((?x31437 (ite $x84483 (_ bv152 32) (_ bv151 32))))
(let (($x86584 (bvsge ?x44196 ?x31437)))
(let ((?x37745 (ite $x86584 (bvadd (bvsub ?x44196 ?x31437) (_ bv1 32)) (ite $x63756 (bvadd (bvsub ?x44196 ?x68483) (_ bv1 32)) ?x4390))))
(let ((?x68133 (ite $x84483 (_ bv182 32) (_ bv181 32))))
(let (($x14672 (bvsge ?x44196 ?x68133)))
(let ((?x69005 (ite $x84483 (_ bv213 32) (_ bv212 32))))
(let (($x83761 (bvsge ?x44196 ?x69005)))
(let ((?x17122 (ite $x83761 (bvadd (bvsub ?x44196 ?x69005) (_ bv1 32)) (ite $x14672 (bvadd (bvsub ?x44196 ?x68133) (_ bv1 32)) ?x37745))))
(let ((?x7610 (ite $x84483 (_ bv244 32) (_ bv243 32))))
(let (($x61497 (bvsge ?x44196 ?x7610)))
(let ((?x49609 (ite $x84483 (_ bv274 32) (_ bv273 32))))
(let (($x33348 (bvsge ?x44196 ?x49609)))
(let ((?x13581 (ite $x33348 (bvadd (bvsub ?x44196 ?x49609) (_ bv1 32)) (ite $x61497 (bvadd (bvsub ?x44196 ?x7610) (_ bv1 32)) ?x17122))))
(let ((?x61512 (ite $x84483 (_ bv305 32) (_ bv304 32))))
(let (($x34456 (bvsge ?x44196 ?x61512)))
(let ((?x1901 (ite $x84483 (_ bv335 32) (_ bv334 32))))
(let (($x80106 (bvsge ?x44196 ?x1901)))
(let ((?x13188 (ite $x80106 (bvadd (bvsub ?x44196 ?x1901) (_ bv1 32)) (ite $x34456 (bvadd (bvsub ?x44196 ?x61512) (_ bv1 32)) ?x13581))))
(let (($x30911 (= (_ bv1 32) (_ bv0 32))))
(let ((?x84362 (bvsub (bvadd (bvmul (_ bv2020 32) (_ bv12 32)) (_ bv3 32)) (_ bv24003 32))))
(let ((?x69127 (ite $x86584 (_ bv6 32) (ite $x63756 (_ bv5 32) (ite $x20679 (_ bv4 32) (ite $x83430 (_ bv3 32) (ite $x45122 (_ bv2 32) (_ bv1 32))))))))
(let ((?x40058 (ite $x34456 (_ bv11 32) (ite $x33348 (_ bv10 32) (ite $x61497 (_ bv9 32) (ite $x83761 (_ bv8 32) (ite $x14672 (_ bv7 32) ?x69127)))))))
(let ((?x15363 (ite $x80106 (_ bv12 32) ?x40058)))
(let ((?x19268 (bvsub (bvadd (bvmul (ite $x30911 ?x84525 ?x85742) (_ bv12 32)) (ite $x30911 ?x83620 ?x15363)) (_ bv24003 32))))
(and (= ?x19268 ?x84362) (= (_ bv0 32) (bvsub (ite $x30911 ?x29174 ?x13188) (_ bv1 32))))))))))))))))))))))))))))))))))))))))))))))))))))))))))))))))))))
(check-sat)
